c description: Random 3-CNF over 21 variables and 89 clauses
c generator: CNFgen (0.9.2)
c copyright: (C) 2012-2022 Massimo Lauria <massimo.lauria@uniroma1.it>
c url: https://massimolauria.net/cnfgen
c command line: cnfgen --output CNF_4.28/21_bit_89_327.cnf randkcnf 3 21 89
c
p cnf 21 89
1 8 13 0
11 -16 -20 0
2 16 19 0
8 -9 14 0
-3 -5 -10 0
-8 -9 -19 0
-9 -15 -20 0
-1 -7 -17 0
2 7 13 0
1 -11 -17 0
5 -12 -13 0
11 13 -18 0
-8 -16 18 0
5 -6 7 0
-6 15 -20 0
-4 -5 6 0
4 -8 -9 0
-6 7 18 0
5 -6 -14 0
4 13 16 0
8 12 16 0
4 9 20 0
-3 -11 -18 0
2 8 18 0
2 3 -9 0
10 -19 20 0
-11 -14 18 0
-7 13 21 0
-2 -13 15 0
-9 14 -19 0
-1 12 -17 0
3 -15 19 0
-3 -7 -11 0
8 16 17 0
7 -13 -20 0
-5 15 -20 0
1 4 -12 0
9 10 21 0
-15 -19 20 0
-2 -13 -16 0
2 -3 6 0
-17 -18 -21 0
-2 12 19 0
1 -5 -8 0
4 -10 -17 0
-13 -15 16 0
1 -11 19 0
4 7 -16 0
12 18 -21 0
11 -14 16 0
2 13 -16 0
-7 8 14 0
-10 13 -19 0
9 10 13 0
-12 18 -19 0
4 5 -18 0
1 -5 -19 0
1 -9 -19 0
-3 -5 8 0
9 -17 18 0
1 -11 21 0
-7 -13 15 0
5 -7 13 0
2 14 -17 0
1 -18 -19 0
1 2 15 0
1 7 -19 0
7 10 11 0
-11 16 18 0
-4 -9 -16 0
4 -9 -20 0
5 -15 -21 0
-2 8 -13 0
-7 15 17 0
-10 -11 20 0
5 -8 18 0
-4 11 -12 0
3 -6 20 0
2 17 -21 0
-10 15 -20 0
-3 -13 -21 0
-1 4 12 0
-19 20 -21 0
13 16 21 0
-3 -10 -17 0
10 -17 -19 0
1 12 20 0
-9 11 19 0
-5 -13 19 0
